************************************************************************
file with basedata            : mm58_.bas
initial value random generator: 1632787957
************************************************************************
projects                      :  1
jobs (incl. supersource/sink ):  12
horizon                       :  80
RESOURCES
  - renewable                 :  2   R
  - nonrenewable              :  2   N
  - doubly constrained        :  0   D
************************************************************************
PROJECT INFORMATION:
pronr.  #jobs rel.date duedate tardcost  MPM-Time
    1     10      0       17        3       17
************************************************************************
PRECEDENCE RELATIONS:
jobnr.    #modes  #successors   successors
   0        1          3           1   2   3
   1        3          1           8
   2        3          3           4   5   9
   3        3          2           5   6
   4        3          2           7   8
   5        3          1          10
   6        3          2           8   9
   7        3          1          10
   8        3          1          11
   9        3          1          11
  10        3          1          11
  11        1          0        
************************************************************************
REQUESTS/DURATIONS:
jobnr. mode duration  R 1  R 2  R 3  R 4  E(W 1)  E(W 2)
------------------------------------------------------------------------
  0      1     0       0    0    0    0     0       0
  1      1     2       3    7    4    0    20       8
  2      1     8       9    6    0    6    120      48
  3      1     5      10    8    0    7    90      35
  4      1     4       3    7    9    0    40      36
  5      1     3       8    4    9    0    36      27
  6      1     2       4    6    6    0    20      12
  7      1     1       8    6    0   10    14      10
  8      1     1       6    5    0    7    11       7
  9      1     4       2    7    2    0    36       8
 10      1     4       3    6    5    0    36      20
 11      1     0       0    0    0    0     0       0
************************************************************************
RESOURCEAVAILABILITIES:
  R 1  R 2
   43   64
************************************************************************
RESOURCE LIMITS:
jobnr.  l(R 1)  u(R 1)  l(R 2)  u(R 2)
------------------------------------------------------------------------
  0        0       0       0       0
  1        6      10       2       4
  2        8      15       3       6
  3        9      18       4       7
  4        6      10       5       9
  5        6      12       5       9
  6        5      10       3       6
  7        7      14       5      10
  8        6      11       4       7
  9        5       9       1       2
 10        5       9       3       5
 11        0       0       0       0
************************************************************************
SCENARIOS:
------------------------------------------------------------------------
RESOURCE k = 1
s = 1: (0, 22, 148, 90, 33, 31, 18, 24, 10, 64, 32, 0)
s = 2: (0, 17, 171, 125, 39, 30, 13, 11, 11, 45, 59, 0)
s = 3: (0, 15, 72, 71, 32, 35, 25, 25, 13, 22, 34, 0)
s = 4: (0, 21, 127, 56, 54, 35, 25, 14, 9, 21, 31, 0)
s = 5: (0, 23, 98, 88, 29, 31, 21, 15, 11, 34, 61, 0)
s = 6: (0, 22, 124, 56, 46, 40, 19, 11, 10, 37, 56, 0)
s = 7: (0, 15, 94, 90, 58, 35, 26, 13, 14, 53, 23, 0)
s = 8: (0, 13, 80, 94, 55, 47, 23, 18, 10, 34, 49, 0)
s = 9: (0, 27, 109, 80, 40, 23, 15, 14, 8, 31, 42, 0)
s = 10: (0, 37, 85, 72, 43, 43, 20, 11, 17, 21, 31, 0)
s = 11: (0, 17, 153, 82, 39, 41, 14, 10, 16, 32, 40, 0)
s = 12: (0, 20, 84, 58, 47, 29, 15, 18, 10, 37, 49, 0)
s = 13: (0, 20, 105, 79, 36, 26, 14, 19, 12, 59, 31, 0)
s = 14: (0, 23, 154, 102, 64, 31, 19, 18, 16, 49, 23, 0)
s = 15: (0, 26, 101, 63, 48, 32, 27, 13, 12, 21, 32, 0)
s = 16: (0, 12, 90, 146, 28, 34, 16, 10, 10, 46, 34, 0)
s = 17: (0, 20, 179, 80, 52, 48, 31, 9, 8, 48, 39, 0)
s = 18: (0, 16, 112, 130, 36, 28, 15, 12, 12, 40, 26, 0)
s = 19: (0, 30, 118, 71, 52, 28, 15, 18, 8, 42, 21, 0)
s = 20: (0, 27, 109, 68, 56, 67, 17, 19, 13, 28, 23, 0)
s = 21: (0, 13, 143, 48, 30, 25, 17, 19, 10, 39, 47, 0)
s = 22: (0, 25, 149, 83, 43, 55, 29, 14, 8, 55, 46, 0)
s = 23: (0, 19, 87, 59, 36, 49, 18, 14, 12, 40, 24, 0)
s = 24: (0, 21, 106, 59, 49, 45, 25, 9, 11, 42, 21, 0)
s = 25: (0, 20, 209, 85, 38, 35, 19, 14, 7, 40, 43, 0)
s = 26: (0, 15, 120, 83, 32, 30, 20, 14, 9, 44, 43, 0)
s = 27: (0, 17, 86, 110, 56, 37, 17, 13, 10, 41, 30, 0)
s = 28: (0, 28, 129, 58, 33, 47, 25, 12, 9, 41, 27, 0)
s = 29: (0, 15, 106, 98, 29, 31, 23, 17, 7, 51, 40, 0)
s = 30: (0, 17, 198, 94, 24, 36, 22, 16, 15, 38, 23, 0)
s = 31: (0, 16, 203, 89, 32, 57, 18, 17, 10, 37, 47, 0)
s = 32: (0, 12, 119, 61, 58, 36, 26, 19, 8, 32, 35, 0)
s = 33: (0, 31, 137, 144, 50, 31, 38, 13, 12, 33, 24, 0)
s = 34: (0, 19, 100, 73, 30, 29, 24, 14, 15, 30, 38, 0)
s = 35: (0, 20, 168, 52, 69, 31, 31, 12, 8, 61, 27, 0)
s = 36: (0, 14, 117, 60, 61, 27, 25, 15, 10, 33, 41, 0)
s = 37: (0, 16, 150, 83, 57, 49, 19, 17, 16, 35, 44, 0)
s = 38: (0, 19, 147, 136, 27, 49, 29, 12, 12, 42, 28, 0)
s = 39: (0, 17, 94, 75, 45, 42, 26, 8, 11, 25, 29, 0)
s = 40: (0, 19, 165, 169, 42, 30, 21, 14, 9, 45, 33, 0)
s = 41: (0, 20, 151, 129, 35, 32, 29, 17, 13, 34, 33, 0)
s = 42: (0, 16, 144, 97, 44, 29, 17, 13, 7, 23, 41, 0)
s = 43: (0, 19, 85, 60, 38, 26, 14, 19, 8, 41, 20, 0)
s = 44: (0, 31, 117, 122, 55, 51, 31, 15, 14, 47, 46, 0)
s = 45: (0, 11, 170, 102, 40, 39, 31, 20, 14, 37, 31, 0)
s = 46: (0, 15, 136, 80, 36, 30, 25, 24, 12, 36, 54, 0)
s = 47: (0, 14, 83, 57, 37, 38, 33, 18, 11, 46, 41, 0)
s = 48: (0, 18, 133, 141, 58, 47, 28, 10, 13, 47, 42, 0)
s = 49: (0, 16, 182, 102, 43, 35, 16, 10, 18, 36, 26, 0)
s = 50: (0, 14, 131, 77, 23, 34, 12, 18, 13, 36, 59, 0)
s = 51: (0, 18, 77, 84, 71, 56, 17, 19, 8, 40, 61, 0)
s = 52: (0, 26, 148, 75, 46, 23, 20, 14, 11, 37, 32, 0)
s = 53: (0, 21, 166, 76, 23, 28, 32, 8, 11, 48, 29, 0)
s = 54: (0, 17, 88, 73, 54, 25, 11, 19, 11, 29, 22, 0)
s = 55: (0, 17, 98, 107, 52, 23, 21, 17, 8, 39, 60, 0)
s = 56: (0, 16, 129, 110, 27, 41, 15, 20, 14, 33, 32, 0)
s = 57: (0, 19, 116, 52, 39, 36, 34, 12, 18, 31, 41, 0)
s = 58: (0, 26, 97, 72, 31, 41, 20, 11, 16, 36, 62, 0)
s = 59: (0, 25, 175, 65, 39, 41, 23, 8, 10, 38, 25, 0)
s = 60: (0, 20, 72, 168, 23, 40, 13, 18, 9, 38, 39, 0)
s = 61: (0, 31, 107, 139, 22, 43, 13, 9, 14, 31, 57, 0)
s = 62: (0, 14, 196, 107, 50, 24, 17, 13, 13, 31, 21, 0)
s = 63: (0, 24, 135, 72, 68, 24, 19, 13, 12, 44, 44, 0)
s = 64: (0, 19, 119, 122, 30, 48, 17, 21, 10, 31, 30, 0)
s = 65: (0, 24, 121, 142, 37, 44, 27, 12, 7, 32, 24, 0)
s = 66: (0, 13, 113, 106, 37, 33, 22, 9, 9, 47, 24, 0)
s = 67: (0, 15, 127, 137, 45, 57, 22, 10, 17, 33, 37, 0)
s = 68: (0, 15, 110, 75, 41, 28, 20, 14, 13, 42, 38, 0)
s = 69: (0, 13, 122, 122, 22, 66, 25, 14, 9, 27, 34, 0)
s = 70: (0, 29, 130, 83, 47, 24, 18, 10, 7, 43, 29, 0)
s = 71: (0, 26, 141, 130, 39, 34, 20, 9, 12, 25, 46, 0)
s = 72: (0, 21, 119, 85, 28, 51, 29, 15, 10, 24, 28, 0)
s = 73: (0, 14, 85, 84, 55, 44, 17, 10, 9, 43, 53, 0)
s = 74: (0, 26, 101, 94, 28, 42, 16, 17, 11, 27, 35, 0)
s = 75: (0, 15, 174, 47, 27, 32, 16, 9, 6, 33, 25, 0)
s = 76: (0, 17, 147, 64, 37, 32, 16, 13, 16, 25, 47, 0)
s = 77: (0, 12, 116, 107, 45, 41, 15, 11, 12, 26, 43, 0)
s = 78: (0, 17, 158, 69, 36, 27, 24, 24, 18, 27, 43, 0)
s = 79: (0, 16, 74, 82, 26, 45, 29, 10, 9, 32, 47, 0)
s = 80: (0, 24, 119, 52, 28, 39, 28, 21, 8, 42, 30, 0)
s = 81: (0, 17, 83, 112, 34, 26, 14, 13, 13, 52, 29, 0)
s = 82: (0, 21, 102, 79, 24, 24, 14, 21, 7, 28, 27, 0)
s = 83: (0, 21, 128, 63, 39, 24, 17, 26, 8, 50, 33, 0)
s = 84: (0, 15, 128, 55, 26, 51, 14, 17, 19, 32, 49, 0)
s = 85: (0, 32, 157, 141, 38, 24, 29, 12, 13, 43, 26, 0)
s = 86: (0, 16, 100, 89, 47, 29, 27, 18, 16, 27, 59, 0)
s = 87: (0, 27, 138, 78, 29, 36, 19, 17, 11, 33, 46, 0)
s = 88: (0, 17, 126, 103, 53, 27, 30, 13, 10, 38, 22, 0)
s = 89: (0, 16, 181, 71, 27, 41, 25, 14, 14, 46, 24, 0)
s = 90: (0, 19, 118, 82, 28, 27, 20, 17, 15, 20, 37, 0)
s = 91: (0, 22, 107, 74, 57, 32, 12, 15, 10, 34, 57, 0)
s = 92: (0, 11, 91, 97, 51, 30, 33, 11, 10, 46, 33, 0)
s = 93: (0, 17, 137, 141, 50, 45, 21, 13, 8, 31, 37, 0)
s = 94: (0, 23, 121, 104, 50, 22, 25, 18, 10, 51, 57, 0)
s = 95: (0, 14, 96, 73, 38, 42, 14, 26, 14, 36, 34, 0)
s = 96: (0, 12, 95, 74, 47, 52, 16, 15, 12, 24, 38, 0)
s = 97: (0, 28, 156, 85, 48, 38, 25, 14, 8, 19, 45, 0)
s = 98: (0, 24, 105, 51, 35, 41, 22, 21, 8, 59, 51, 0)
s = 99: (0, 20, 124, 160, 31, 27, 23, 18, 11, 20, 24, 0)
s = 100: (0, 19, 144, 83, 24, 28, 17, 15, 9, 31, 21, 0)
s = 101: (0, 33, 123, 108, 49, 45, 20, 23, 10, 29, 60, 0)
s = 102: (0, 13, 89, 74, 54, 29, 28, 14, 13, 33, 39, 0)
s = 103: (0, 19, 78, 93, 50, 23, 26, 13, 11, 26, 65, 0)
s = 104: (0, 15, 76, 94, 39, 65, 36, 9, 14, 28, 36, 0)
s = 105: (0, 13, 119, 103, 41, 41, 19, 15, 9, 51, 34, 0)
s = 106: (0, 21, 67, 148, 49, 35, 13, 13, 10, 32, 30, 0)
s = 107: (0, 13, 102, 71, 25, 41, 16, 14, 18, 51, 38, 0)
s = 108: (0, 14, 100, 142, 29, 23, 16, 16, 16, 58, 33, 0)
s = 109: (0, 19, 89, 76, 45, 23, 22, 17, 9, 35, 32, 0)
s = 110: (0, 16, 110, 59, 34, 38, 17, 17, 8, 30, 26, 0)
s = 111: (0, 14, 106, 93, 31, 28, 17, 9, 14, 31, 55, 0)
s = 112: (0, 30, 169, 118, 32, 23, 18, 17, 12, 24, 25, 0)
s = 113: (0, 23, 100, 58, 24, 40, 13, 12, 12, 29, 46, 0)
s = 114: (0, 34, 71, 86, 59, 45, 16, 22, 18, 36, 51, 0)
s = 115: (0, 28, 92, 60, 42, 40, 16, 13, 9, 31, 33, 0)
s = 116: (0, 26, 200, 103, 52, 34, 23, 9, 9, 30, 26, 0)
s = 117: (0, 21, 110, 46, 49, 42, 24, 13, 14, 24, 24, 0)
s = 118: (0, 32, 115, 104, 45, 36, 23, 16, 8, 50, 27, 0)
s = 119: (0, 21, 158, 85, 25, 45, 16, 12, 8, 36, 36, 0)
s = 120: (0, 23, 158, 114, 39, 45, 25, 19, 9, 55, 51, 0)
s = 121: (0, 24, 112, 58, 51, 46, 12, 18, 13, 36, 24, 0)
s = 122: (0, 16, 92, 125, 32, 22, 16, 14, 12, 31, 24, 0)
s = 123: (0, 23, 79, 55, 56, 48, 21, 10, 9, 34, 46, 0)
s = 124: (0, 28, 99, 89, 63, 26, 24, 20, 14, 27, 40, 0)
s = 125: (0, 21, 86, 82, 27, 39, 23, 14, 11, 26, 29, 0)
s = 126: (0, 19, 126, 76, 23, 46, 19, 12, 12, 39, 29, 0)
s = 127: (0, 25, 102, 95, 38, 25, 29, 9, 8, 33, 45, 0)
s = 128: (0, 23, 91, 53, 51, 34, 18, 18, 16, 29, 43, 0)
s = 129: (0, 26, 146, 113, 32, 37, 19, 19, 8, 40, 51, 0)
s = 130: (0, 15, 107, 87, 32, 23, 18, 14, 12, 26, 31, 0)
s = 131: (0, 24, 149, 65, 37, 38, 19, 11, 17, 44, 35, 0)
s = 132: (0, 13, 185, 75, 30, 25, 19, 21, 8, 26, 28, 0)
s = 133: (0, 22, 110, 102, 38, 34, 21, 13, 9, 39, 36, 0)
s = 134: (0, 22, 110, 60, 35, 47, 15, 9, 9, 23, 27, 0)
s = 135: (0, 26, 88, 83, 35, 54, 33, 19, 14, 51, 28, 0)
s = 136: (0, 16, 129, 98, 38, 34, 25, 21, 15, 40, 23, 0)
s = 137: (0, 24, 126, 67, 43, 52, 14, 17, 19, 59, 23, 0)
s = 138: (0, 20, 231, 77, 21, 45, 19, 23, 8, 29, 29, 0)
s = 139: (0, 19, 128, 50, 35, 50, 21, 10, 14, 46, 30, 0)
s = 140: (0, 25, 126, 77, 46, 44, 20, 13, 12, 25, 55, 0)
s = 141: (0, 12, 108, 128, 32, 45, 18, 14, 10, 60, 45, 0)
s = 142: (0, 14, 79, 94, 57, 54, 13, 18, 7, 28, 48, 0)
s = 143: (0, 15, 128, 112, 54, 50, 24, 10, 8, 29, 39, 0)
s = 144: (0, 24, 158, 68, 27, 24, 13, 10, 9, 36, 33, 0)
s = 145: (0, 23, 79, 70, 42, 27, 30, 12, 17, 31, 37, 0)
s = 146: (0, 28, 100, 138, 34, 36, 15, 16, 19, 32, 27, 0)
s = 147: (0, 26, 115, 87, 25, 24, 21, 10, 6, 32, 37, 0)
s = 148: (0, 28, 122, 139, 35, 32, 11, 13, 9, 45, 50, 0)
s = 149: (0, 30, 113, 126, 26, 46, 24, 17, 7, 25, 36, 0)
s = 150: (0, 20, 179, 139, 35, 41, 34, 11, 12, 29, 24, 0)
s = 151: (0, 22, 82, 58, 30, 38, 18, 12, 14, 31, 20, 0)
s = 152: (0, 25, 125, 78, 37, 51, 18, 14, 8, 37, 42, 0)
s = 153: (0, 24, 152, 120, 35, 42, 25, 12, 9, 32, 49, 0)
s = 154: (0, 33, 165, 160, 30, 43, 22, 12, 9, 44, 24, 0)
s = 155: (0, 16, 221, 71, 61, 44, 32, 20, 11, 24, 20, 0)
s = 156: (0, 18, 115, 122, 33, 24, 27, 9, 12, 33, 31, 0)
s = 157: (0, 17, 158, 164, 38, 45, 27, 17, 9, 47, 42, 0)
s = 158: (0, 25, 97, 79, 34, 40, 15, 19, 15, 31, 38, 0)
s = 159: (0, 29, 77, 66, 31, 28, 15, 21, 17, 32, 42, 0)
s = 160: (0, 18, 155, 104, 43, 20, 23, 13, 12, 30, 33, 0)
s = 161: (0, 21, 74, 148, 28, 40, 29, 11, 9, 49, 42, 0)
s = 162: (0, 16, 102, 54, 48, 23, 15, 18, 14, 35, 36, 0)
s = 163: (0, 14, 179, 101, 53, 43, 27, 16, 7, 30, 41, 0)
s = 164: (0, 21, 87, 66, 40, 27, 24, 22, 10, 36, 35, 0)
s = 165: (0, 13, 155, 82, 28, 32, 23, 17, 11, 36, 50, 0)
s = 166: (0, 23, 150, 67, 26, 42, 16, 25, 17, 23, 55, 0)
s = 167: (0, 14, 101, 56, 38, 42, 20, 10, 8, 34, 41, 0)
s = 168: (0, 16, 153, 101, 32, 31, 18, 12, 12, 43, 29, 0)
s = 169: (0, 16, 107, 143, 36, 36, 19, 13, 17, 42, 23, 0)
s = 170: (0, 12, 95, 119, 47, 32, 19, 17, 9, 33, 25, 0)
s = 171: (0, 25, 113, 97, 30, 24, 22, 14, 14, 38, 55, 0)
s = 172: (0, 11, 125, 61, 36, 50, 20, 22, 9, 34, 61, 0)
s = 173: (0, 23, 175, 66, 24, 24, 19, 24, 10, 56, 30, 0)
s = 174: (0, 24, 122, 108, 37, 35, 20, 10, 8, 34, 40, 0)
s = 175: (0, 21, 102, 85, 50, 60, 18, 11, 10, 40, 32, 0)
s = 176: (0, 19, 115, 99, 61, 27, 24, 10, 11, 29, 28, 0)
s = 177: (0, 23, 74, 82, 23, 31, 29, 20, 17, 34, 60, 0)
s = 178: (0, 17, 92, 69, 29, 30, 23, 17, 9, 27, 39, 0)
s = 179: (0, 15, 123, 82, 59, 39, 16, 12, 9, 31, 43, 0)
s = 180: (0, 16, 139, 69, 31, 39, 25, 11, 7, 33, 26, 0)
s = 181: (0, 15, 108, 78, 41, 45, 20, 20, 16, 30, 57, 0)
s = 182: (0, 21, 182, 67, 34, 28, 19, 12, 8, 38, 46, 0)
s = 183: (0, 26, 127, 90, 54, 35, 14, 13, 14, 38, 26, 0)
s = 184: (0, 17, 88, 120, 48, 39, 15, 16, 19, 34, 27, 0)
s = 185: (0, 37, 125, 80, 41, 20, 18, 11, 14, 30, 52, 0)
s = 186: (0, 13, 141, 81, 36, 24, 19, 13, 11, 31, 34, 0)
s = 187: (0, 20, 160, 80, 38, 32, 15, 13, 7, 40, 45, 0)
s = 188: (0, 14, 154, 94, 35, 20, 15, 13, 13, 34, 27, 0)
s = 189: (0, 22, 91, 92, 31, 50, 32, 15, 11, 52, 53, 0)
s = 190: (0, 25, 180, 70, 40, 36, 17, 12, 12, 44, 32, 0)
s = 191: (0, 13, 133, 83, 60, 46, 15, 9, 7, 30, 28, 0)
s = 192: (0, 18, 128, 121, 47, 35, 11, 17, 8, 26, 35, 0)
s = 193: (0, 35, 126, 159, 24, 42, 19, 15, 16, 29, 37, 0)
s = 194: (0, 33, 99, 61, 34, 41, 17, 9, 15, 30, 47, 0)
s = 195: (0, 19, 92, 96, 40, 22, 20, 8, 11, 53, 29, 0)
s = 196: (0, 28, 111, 46, 56, 44, 19, 20, 11, 33, 46, 0)
s = 197: (0, 23, 82, 64, 28, 29, 25, 14, 10, 54, 27, 0)
s = 198: (0, 13, 180, 53, 28, 45, 17, 10, 14, 37, 38, 0)
s = 199: (0, 22, 91, 62, 23, 28, 25, 18, 12, 31, 30, 0)
s = 200: (0, 14, 90, 76, 33, 31, 21, 11, 10, 38, 24, 0)
------------------------------------------------------------------------
RESOURCE k = 2
s = 1: (0, 9, 59, 35, 29, 24, 11, 17, 6, 15, 18, 0)
s = 2: (0, 7, 69, 49, 35, 23, 8, 8, 7, 10, 33, 0)
s = 3: (0, 6, 29, 28, 29, 27, 15, 18, 8, 5, 19, 0)
s = 4: (0, 9, 51, 22, 49, 26, 15, 10, 6, 5, 17, 0)
s = 5: (0, 9, 40, 35, 26, 24, 13, 11, 7, 8, 34, 0)
s = 6: (0, 9, 50, 22, 41, 30, 11, 8, 6, 9, 31, 0)
s = 7: (0, 6, 38, 35, 52, 26, 16, 10, 9, 12, 13, 0)
s = 8: (0, 5, 32, 37, 50, 36, 14, 13, 7, 8, 27, 0)
s = 9: (0, 11, 44, 31, 36, 17, 9, 10, 5, 7, 24, 0)
s = 10: (0, 15, 34, 28, 39, 32, 12, 8, 11, 5, 18, 0)
s = 11: (0, 7, 62, 32, 35, 31, 8, 7, 11, 8, 22, 0)
s = 12: (0, 8, 34, 23, 42, 22, 9, 13, 6, 9, 28, 0)
s = 13: (0, 8, 42, 31, 33, 20, 9, 14, 8, 14, 17, 0)
s = 14: (0, 9, 62, 40, 58, 23, 12, 13, 11, 11, 13, 0)
s = 15: (0, 11, 41, 25, 43, 24, 16, 9, 8, 5, 18, 0)
s = 16: (0, 5, 36, 57, 25, 26, 10, 7, 7, 11, 19, 0)
s = 17: (0, 8, 72, 31, 47, 36, 19, 7, 5, 11, 22, 0)
s = 18: (0, 7, 45, 51, 33, 21, 9, 9, 8, 9, 15, 0)
s = 19: (0, 12, 47, 28, 47, 21, 9, 13, 5, 10, 12, 0)
s = 20: (0, 11, 44, 27, 51, 50, 10, 13, 8, 7, 13, 0)
s = 21: (0, 6, 58, 19, 27, 19, 11, 13, 7, 9, 26, 0)
s = 22: (0, 10, 60, 33, 39, 41, 17, 10, 5, 13, 26, 0)
s = 23: (0, 8, 35, 23, 33, 37, 11, 10, 8, 9, 14, 0)
s = 24: (0, 9, 43, 23, 44, 34, 15, 7, 7, 10, 12, 0)
s = 25: (0, 8, 84, 33, 34, 26, 11, 10, 4, 9, 24, 0)
s = 26: (0, 6, 48, 33, 29, 23, 12, 10, 6, 10, 24, 0)
s = 27: (0, 7, 35, 43, 50, 28, 10, 9, 7, 10, 17, 0)
s = 28: (0, 11, 52, 23, 30, 35, 15, 9, 6, 10, 15, 0)
s = 29: (0, 6, 43, 38, 26, 23, 14, 12, 4, 12, 23, 0)
s = 30: (0, 7, 80, 37, 21, 27, 13, 11, 10, 9, 13, 0)
s = 31: (0, 7, 81, 35, 29, 43, 11, 12, 6, 9, 26, 0)
s = 32: (0, 5, 48, 24, 53, 27, 16, 14, 6, 8, 20, 0)
s = 33: (0, 13, 55, 56, 45, 24, 23, 9, 8, 8, 14, 0)
s = 34: (0, 8, 40, 29, 27, 22, 15, 10, 9, 7, 22, 0)
s = 35: (0, 8, 67, 21, 62, 23, 19, 9, 5, 14, 15, 0)
s = 36: (0, 6, 47, 24, 55, 20, 15, 11, 7, 8, 23, 0)
s = 37: (0, 7, 60, 33, 51, 37, 12, 12, 10, 8, 25, 0)
s = 38: (0, 8, 59, 53, 25, 37, 18, 9, 8, 10, 16, 0)
s = 39: (0, 7, 38, 30, 41, 32, 16, 6, 7, 6, 17, 0)
s = 40: (0, 8, 66, 66, 38, 23, 13, 10, 6, 10, 19, 0)
s = 41: (0, 8, 61, 51, 31, 24, 17, 12, 9, 8, 19, 0)
s = 42: (0, 7, 58, 38, 40, 22, 11, 9, 5, 6, 23, 0)
s = 43: (0, 8, 34, 24, 34, 20, 8, 14, 5, 10, 11, 0)
s = 44: (0, 13, 47, 48, 50, 38, 19, 11, 9, 11, 26, 0)
s = 45: (0, 5, 68, 40, 36, 29, 19, 15, 9, 9, 18, 0)
s = 46: (0, 6, 55, 31, 33, 23, 15, 17, 8, 8, 30, 0)
s = 47: (0, 6, 33, 23, 34, 29, 20, 13, 7, 11, 23, 0)
s = 48: (0, 8, 53, 55, 52, 35, 17, 7, 8, 11, 23, 0)
s = 49: (0, 7, 73, 40, 39, 27, 10, 8, 12, 8, 15, 0)
s = 50: (0, 6, 53, 30, 20, 26, 7, 13, 8, 8, 33, 0)
s = 51: (0, 8, 31, 33, 64, 42, 11, 14, 5, 9, 34, 0)
s = 52: (0, 11, 60, 30, 41, 17, 12, 10, 7, 9, 18, 0)
s = 53: (0, 9, 67, 30, 21, 21, 20, 6, 7, 11, 16, 0)
s = 54: (0, 7, 36, 29, 49, 19, 7, 14, 7, 7, 12, 0)
s = 55: (0, 7, 40, 42, 47, 18, 13, 12, 5, 9, 34, 0)
s = 56: (0, 7, 52, 43, 24, 31, 9, 15, 9, 8, 18, 0)
s = 57: (0, 8, 47, 21, 35, 27, 20, 9, 12, 7, 23, 0)
s = 58: (0, 11, 39, 28, 28, 31, 12, 8, 10, 8, 34, 0)
s = 59: (0, 10, 70, 25, 35, 31, 14, 6, 7, 9, 14, 0)
s = 60: (0, 8, 29, 66, 20, 30, 8, 13, 6, 9, 22, 0)
s = 61: (0, 13, 43, 54, 20, 32, 8, 7, 9, 7, 32, 0)
s = 62: (0, 6, 79, 42, 45, 18, 10, 9, 9, 7, 12, 0)
s = 63: (0, 10, 54, 28, 61, 18, 12, 9, 8, 10, 24, 0)
s = 64: (0, 8, 48, 48, 27, 36, 11, 15, 7, 7, 17, 0)
s = 65: (0, 10, 49, 56, 33, 33, 17, 9, 4, 8, 14, 0)
s = 66: (0, 5, 46, 42, 33, 25, 13, 7, 6, 11, 14, 0)
s = 67: (0, 6, 51, 54, 40, 43, 13, 7, 11, 8, 21, 0)
s = 68: (0, 6, 44, 29, 37, 21, 12, 10, 8, 10, 21, 0)
s = 69: (0, 5, 49, 48, 20, 50, 15, 10, 6, 6, 19, 0)
s = 70: (0, 12, 52, 32, 43, 18, 11, 7, 5, 10, 17, 0)
s = 71: (0, 11, 57, 51, 35, 26, 12, 7, 8, 6, 26, 0)
s = 72: (0, 9, 48, 33, 25, 38, 17, 11, 6, 6, 16, 0)
s = 73: (0, 6, 34, 33, 49, 33, 10, 7, 6, 10, 29, 0)
s = 74: (0, 11, 41, 37, 25, 32, 10, 12, 7, 6, 20, 0)
s = 75: (0, 6, 70, 19, 25, 24, 10, 7, 4, 8, 14, 0)
s = 76: (0, 7, 59, 25, 34, 24, 10, 9, 10, 6, 26, 0)
s = 77: (0, 5, 47, 42, 41, 31, 9, 8, 8, 6, 24, 0)
s = 78: (0, 7, 63, 27, 32, 20, 14, 18, 11, 6, 24, 0)
s = 79: (0, 7, 30, 32, 24, 34, 18, 7, 6, 7, 26, 0)
s = 80: (0, 10, 48, 21, 25, 30, 17, 15, 5, 10, 17, 0)
s = 81: (0, 7, 33, 44, 31, 19, 9, 10, 8, 12, 16, 0)
s = 82: (0, 9, 41, 31, 21, 18, 9, 15, 4, 7, 15, 0)
s = 83: (0, 9, 51, 25, 35, 18, 10, 19, 5, 11, 18, 0)
s = 84: (0, 6, 51, 22, 24, 38, 9, 13, 12, 8, 27, 0)
s = 85: (0, 13, 63, 55, 34, 18, 18, 8, 8, 10, 15, 0)
s = 86: (0, 7, 40, 35, 43, 22, 17, 13, 10, 6, 33, 0)
s = 87: (0, 11, 56, 31, 26, 27, 11, 12, 7, 8, 26, 0)
s = 88: (0, 7, 51, 40, 48, 21, 18, 9, 6, 9, 13, 0)
s = 89: (0, 7, 73, 28, 25, 31, 15, 10, 9, 11, 13, 0)
s = 90: (0, 8, 47, 32, 25, 20, 12, 12, 9, 5, 21, 0)
s = 91: (0, 9, 43, 29, 51, 24, 7, 11, 7, 8, 32, 0)
s = 92: (0, 5, 37, 38, 46, 23, 20, 8, 6, 11, 19, 0)
s = 93: (0, 7, 55, 55, 45, 34, 13, 9, 5, 7, 21, 0)
s = 94: (0, 9, 49, 41, 45, 17, 15, 13, 7, 12, 32, 0)
s = 95: (0, 6, 39, 29, 34, 32, 8, 19, 9, 8, 19, 0)
s = 96: (0, 5, 38, 29, 42, 39, 10, 11, 8, 6, 21, 0)
s = 97: (0, 12, 63, 33, 43, 29, 15, 10, 5, 5, 25, 0)
s = 98: (0, 10, 42, 20, 31, 31, 14, 15, 5, 14, 29, 0)
s = 99: (0, 8, 50, 63, 28, 20, 14, 13, 7, 5, 14, 0)
s = 100: (0, 8, 58, 33, 21, 21, 10, 11, 6, 7, 12, 0)
s = 101: (0, 13, 50, 42, 44, 34, 12, 17, 7, 7, 33, 0)
s = 102: (0, 6, 36, 29, 49, 22, 17, 10, 9, 8, 22, 0)
s = 103: (0, 8, 32, 36, 45, 17, 16, 9, 7, 6, 36, 0)
s = 104: (0, 6, 31, 37, 35, 49, 22, 7, 9, 7, 20, 0)
s = 105: (0, 5, 48, 40, 37, 31, 11, 11, 6, 12, 19, 0)
s = 106: (0, 9, 27, 58, 44, 27, 8, 9, 6, 8, 17, 0)
s = 107: (0, 6, 41, 28, 23, 31, 10, 10, 12, 12, 21, 0)
s = 108: (0, 6, 40, 56, 26, 17, 10, 12, 10, 13, 19, 0)
s = 109: (0, 8, 36, 30, 41, 18, 13, 13, 6, 8, 18, 0)
s = 110: (0, 7, 44, 23, 30, 29, 11, 12, 5, 7, 15, 0)
s = 111: (0, 6, 43, 37, 28, 21, 10, 7, 9, 7, 31, 0)
s = 112: (0, 12, 68, 46, 28, 17, 11, 12, 8, 6, 14, 0)
s = 113: (0, 9, 40, 23, 22, 30, 8, 9, 8, 7, 26, 0)
s = 114: (0, 14, 29, 34, 53, 34, 10, 16, 12, 8, 29, 0)
s = 115: (0, 12, 37, 24, 38, 30, 10, 10, 6, 7, 19, 0)
s = 116: (0, 11, 80, 40, 47, 25, 14, 6, 6, 7, 14, 0)
s = 117: (0, 9, 44, 18, 44, 32, 14, 9, 9, 6, 13, 0)
s = 118: (0, 13, 46, 41, 41, 27, 14, 12, 5, 12, 15, 0)
s = 119: (0, 9, 63, 33, 23, 34, 10, 9, 5, 8, 20, 0)
s = 120: (0, 9, 64, 45, 36, 34, 15, 13, 6, 13, 29, 0)
s = 121: (0, 10, 45, 23, 46, 34, 7, 13, 8, 8, 14, 0)
s = 122: (0, 7, 37, 49, 29, 17, 10, 10, 8, 7, 13, 0)
s = 123: (0, 10, 32, 22, 50, 36, 13, 7, 6, 8, 26, 0)
s = 124: (0, 11, 40, 35, 57, 19, 15, 14, 9, 6, 23, 0)
s = 125: (0, 9, 35, 32, 24, 30, 14, 10, 7, 6, 16, 0)
s = 126: (0, 8, 51, 30, 21, 35, 12, 9, 8, 9, 17, 0)
s = 127: (0, 10, 41, 37, 34, 19, 17, 6, 5, 8, 25, 0)
s = 128: (0, 10, 37, 21, 46, 26, 11, 13, 10, 7, 24, 0)
s = 129: (0, 11, 59, 44, 28, 28, 12, 14, 6, 9, 28, 0)
s = 130: (0, 6, 43, 34, 29, 17, 11, 10, 8, 6, 18, 0)
s = 131: (0, 10, 60, 26, 33, 29, 12, 8, 11, 10, 20, 0)
s = 132: (0, 5, 74, 30, 27, 19, 11, 15, 5, 6, 16, 0)
s = 133: (0, 9, 44, 40, 34, 26, 13, 9, 6, 9, 20, 0)
s = 134: (0, 9, 44, 24, 31, 35, 9, 6, 6, 5, 15, 0)
s = 135: (0, 11, 36, 32, 32, 40, 20, 14, 9, 12, 16, 0)
s = 136: (0, 7, 52, 39, 34, 26, 15, 15, 10, 9, 13, 0)
s = 137: (0, 10, 51, 27, 39, 39, 9, 12, 12, 14, 13, 0)
s = 138: (0, 8, 93, 30, 19, 34, 11, 16, 5, 7, 16, 0)
s = 139: (0, 8, 52, 20, 32, 38, 13, 7, 9, 11, 17, 0)
s = 140: (0, 10, 51, 30, 42, 33, 12, 10, 8, 6, 31, 0)
s = 141: (0, 5, 43, 50, 29, 34, 11, 10, 6, 14, 25, 0)
s = 142: (0, 6, 32, 37, 52, 41, 8, 13, 5, 7, 27, 0)
s = 143: (0, 6, 52, 44, 49, 38, 15, 7, 6, 7, 22, 0)
s = 144: (0, 10, 64, 27, 24, 18, 8, 7, 6, 8, 18, 0)
s = 145: (0, 9, 32, 27, 38, 21, 18, 8, 11, 7, 21, 0)
s = 146: (0, 12, 40, 54, 31, 27, 9, 11, 12, 8, 15, 0)
s = 147: (0, 11, 46, 34, 23, 18, 13, 7, 4, 7, 21, 0)
s = 148: (0, 11, 49, 55, 32, 24, 7, 9, 6, 10, 28, 0)
s = 149: (0, 12, 45, 49, 24, 35, 15, 13, 4, 6, 20, 0)
s = 150: (0, 8, 72, 54, 32, 31, 20, 8, 8, 7, 14, 0)
s = 151: (0, 9, 33, 23, 27, 29, 11, 9, 9, 7, 12, 0)
s = 152: (0, 10, 50, 31, 34, 38, 11, 10, 6, 9, 24, 0)
s = 153: (0, 10, 61, 47, 32, 32, 15, 9, 6, 7, 28, 0)
s = 154: (0, 13, 66, 63, 27, 32, 13, 9, 6, 10, 13, 0)
s = 155: (0, 7, 89, 28, 55, 33, 20, 14, 7, 6, 12, 0)
s = 156: (0, 7, 46, 48, 30, 18, 17, 7, 8, 8, 17, 0)
s = 157: (0, 7, 63, 64, 35, 34, 17, 12, 6, 11, 24, 0)
s = 158: (0, 10, 39, 31, 31, 30, 9, 14, 10, 7, 22, 0)
s = 159: (0, 12, 31, 26, 28, 21, 9, 15, 11, 7, 24, 0)
s = 160: (0, 8, 62, 41, 39, 15, 14, 9, 8, 7, 18, 0)
s = 161: (0, 9, 30, 58, 25, 30, 18, 8, 6, 11, 24, 0)
s = 162: (0, 7, 41, 21, 43, 17, 9, 13, 9, 8, 20, 0)
s = 163: (0, 6, 72, 39, 48, 32, 16, 11, 4, 7, 23, 0)
s = 164: (0, 9, 35, 26, 36, 20, 15, 16, 6, 8, 20, 0)
s = 165: (0, 5, 62, 32, 25, 24, 14, 12, 7, 8, 28, 0)
s = 166: (0, 9, 60, 26, 23, 31, 10, 18, 11, 6, 31, 0)
s = 167: (0, 6, 41, 22, 34, 31, 12, 8, 5, 8, 23, 0)
s = 168: (0, 7, 62, 40, 29, 23, 11, 9, 8, 10, 16, 0)
s = 169: (0, 7, 43, 56, 32, 27, 12, 10, 11, 10, 13, 0)
s = 170: (0, 5, 38, 46, 42, 24, 12, 12, 6, 8, 14, 0)
s = 171: (0, 10, 45, 38, 27, 18, 14, 10, 9, 9, 31, 0)
s = 172: (0, 5, 50, 24, 33, 37, 12, 16, 6, 8, 34, 0)
s = 173: (0, 9, 70, 26, 21, 18, 12, 17, 7, 13, 17, 0)
s = 174: (0, 10, 49, 42, 33, 26, 12, 7, 5, 8, 22, 0)
s = 175: (0, 9, 41, 33, 45, 45, 11, 8, 6, 9, 18, 0)
s = 176: (0, 8, 46, 39, 55, 20, 15, 7, 7, 7, 16, 0)
s = 177: (0, 9, 30, 32, 21, 24, 18, 15, 11, 8, 34, 0)
s = 178: (0, 7, 37, 27, 26, 23, 14, 12, 6, 6, 22, 0)
s = 179: (0, 6, 50, 32, 53, 29, 10, 9, 6, 7, 24, 0)
s = 180: (0, 7, 56, 27, 28, 29, 15, 8, 4, 8, 14, 0)
s = 181: (0, 6, 44, 30, 37, 34, 12, 15, 10, 7, 32, 0)
s = 182: (0, 9, 73, 26, 30, 21, 12, 9, 5, 9, 26, 0)
s = 183: (0, 11, 51, 35, 49, 26, 8, 9, 9, 9, 15, 0)
s = 184: (0, 7, 35, 47, 43, 29, 9, 12, 12, 8, 15, 0)
s = 185: (0, 15, 50, 31, 37, 15, 11, 8, 9, 7, 29, 0)
s = 186: (0, 6, 57, 32, 33, 18, 12, 9, 7, 7, 19, 0)
s = 187: (0, 8, 64, 31, 34, 24, 9, 9, 5, 9, 25, 0)
s = 188: (0, 6, 62, 37, 32, 15, 9, 9, 9, 8, 15, 0)
s = 189: (0, 9, 37, 36, 28, 37, 19, 11, 7, 12, 30, 0)
s = 190: (0, 10, 72, 28, 36, 27, 10, 9, 8, 10, 18, 0)
s = 191: (0, 6, 54, 33, 54, 34, 9, 6, 5, 7, 16, 0)
s = 192: (0, 8, 51, 47, 43, 27, 7, 12, 5, 6, 20, 0)
s = 193: (0, 14, 51, 62, 22, 32, 12, 11, 10, 7, 21, 0)
s = 194: (0, 13, 40, 24, 31, 31, 10, 7, 10, 7, 27, 0)
s = 195: (0, 8, 37, 38, 36, 16, 12, 6, 7, 12, 16, 0)
s = 196: (0, 12, 45, 18, 50, 33, 12, 14, 7, 8, 26, 0)
s = 197: (0, 9, 33, 25, 26, 22, 15, 10, 7, 12, 15, 0)
s = 198: (0, 6, 72, 21, 25, 34, 10, 7, 9, 9, 21, 0)
s = 199: (0, 9, 37, 25, 20, 21, 15, 13, 8, 7, 17, 0)
s = 200: (0, 6, 36, 30, 30, 24, 13, 8, 7, 9, 13, 0)
************************************************************************
ES/LS-VALUES:
jobnr.   ES(i)    LS(i)
------------------------------------------------------------------------
  0        0        0
  1        0       74
  2        0       46
  3        0       56
  4       15       62
  5       15       66
  6        9       68
  7       22       70
  8       22       78
  9       15       72
 10       23       72
 11       30       80
************************************************************************
BIG-M-VALUES:
M1 = 60, M2 = 324
************************************************************************
